(set-logic HORN)

(declare-datatypes ((TSLL 0)) (((TSLL  (next Int) (prev Int) (data Int)))))
(declare-datatypes ((HeapObject 0)) (((O_Int  (getInt Int)) (O_UInt  (getUInt Int)) (O_Addr  (getAddr Int)) (O_TSLL  (getTSLL TSLL)) (defObj ))))
(declare-datatypes ((Heap 0)) (((HeapCtor  (HeapSize Int) (HeapContents (Array Int HeapObject))))))

(declare-fun |inv_main47| ( Heap Int Int ) Bool)
(declare-fun |inv_main46| ( Heap Int Int ) Bool)
(declare-fun |inv_main21| ( Heap Int Int ) Bool)
(declare-fun |inv_main11| ( Heap Int Int ) Bool)
(declare-fun |inv_main4| ( Heap Int ) Bool)
(declare-fun |inv_main27| ( Heap Int Int ) Bool)
(declare-fun |inv_main7| ( Heap Int Int ) Bool)
(declare-fun |inv_main2| ( Heap ) Bool)
(declare-fun |inv_main48| ( Heap Int Int ) Bool)
(declare-fun |inv_main40| ( Heap Int Int Int ) Bool)
(declare-fun |inv_main38| ( Heap Int Int Int ) Bool)
(declare-fun |inv_main23| ( Heap Int Int ) Bool)
(declare-fun |inv_main3| ( Heap Int ) Bool)
(declare-fun |inv_main13| ( Heap Int Int ) Bool)
(declare-fun |CHC_COMP_FALSE| ( ) Bool)
(declare-fun |inv_main60| ( Heap Int Int ) Bool)
(declare-fun |inv_main37| ( Heap Int Int Int Int ) Bool)
(declare-fun |inv_main55| ( Heap Int Int ) Bool)
(declare-fun |inv_main44| ( Heap Int Int Int ) Bool)
(declare-fun |inv_main42| ( Heap Int Int Int ) Bool)
(declare-fun |inv_main54| ( Heap Int Int ) Bool)
(declare-fun |inv_main26| ( Heap Int Int ) Bool)
(declare-fun |inv_main67| ( Heap Int Int ) Bool)
(declare-fun |inv_main5| ( Heap Int ) Bool)
(declare-fun |inv_main30| ( Heap Int Int ) Bool)
(declare-fun |inv_main45| ( Heap Int Int Int Int ) Bool)
(declare-fun |inv_main12| ( Heap Int Int Int ) Bool)
(declare-fun |inv_main16| ( Heap Int Int ) Bool)
(declare-fun |inv_main14| ( Heap Int Int ) Bool)
(declare-fun |inv_main36| ( Heap Int Int Int ) Bool)
(declare-fun |inv_main24| ( Heap Int Int ) Bool)

(assert
  (forall ( (v_0 Heap) ) 
    (=>
      (and
        (and true (= v_0 (HeapCtor 0 ((as const (Array Int HeapObject)) defObj))))
      )
      (inv_main2 v_0)
    )
  )
)
(assert
  (forall ( (A Int) (B Int) (C Heap) (D Int) (E Int) (F Int) (G Heap) ) 
    (=>
      (and
        (inv_main47 G F E)
        (let ((a!1 (ite (and (not (<= E 0)) (>= (HeapSize G) E))
                (select (HeapContents G) E)
                defObj)))
  (and (not (= D 0))
       (= D (next (getTSLL a!1)))
       (= B F)
       (= A E)
       ((_ is O_TSLL) a!1)
       (= C G)))
      )
      (inv_main54 C B D)
    )
  )
)
(assert
  (forall ( (A Int) (B Int) (C Heap) (D Int) (E Int) (F Int) (G Heap) ) 
    (=>
      (and
        (inv_main55 G F E)
        (let ((a!1 (ite (and (not (<= E 0)) (>= (HeapSize G) E))
                (select (HeapContents G) E)
                defObj)))
  (and (not (= D 0))
       (= D (next (getTSLL a!1)))
       (= B F)
       (= A E)
       ((_ is O_TSLL) a!1)
       (= C G)))
      )
      (inv_main54 C B D)
    )
  )
)
(assert
  (forall ( (A Int) (B Heap) (C Int) (D Int) (E Int) (F Heap) (G Int) (H Int) (I Int) (J Heap) (v_10 Int) ) 
    (=>
      (and
        (inv_main67 J I H)
        (let ((a!1 (ite (and (not (<= H 0)) (>= (HeapSize J) H))
                (select (HeapContents J) H)
                defObj))
      (a!2 (ite (and (not (<= E 0)) (>= (HeapSize F) E))
                (HeapCtor (HeapSize F) (store (HeapContents F) E defObj))
                F)))
  (and (= F J)
       (= C (next (getTSLL a!1)))
       (= A E)
       (not (= G 0))
       (= G C)
       (= E I)
       (= D H)
       ((_ is O_TSLL) a!1)
       (= B a!2)
       (= v_10 G)))
      )
      (inv_main67 B G v_10)
    )
  )
)
(assert
  (forall ( (A Int) (B Heap) (C Int) (D Int) (E Int) (F Int) (G Heap) (v_7 Int) ) 
    (=>
      (and
        (inv_main47 G F E)
        (let ((a!1 (ite (and (not (<= E 0)) (>= (HeapSize G) E))
                (select (HeapContents G) E)
                defObj)))
  (and (= C 0)
       (= C (next (getTSLL a!1)))
       (not (= D 0))
       (= D F)
       (= A E)
       ((_ is O_TSLL) a!1)
       (= B G)
       (= v_7 D)))
      )
      (inv_main67 B D v_7)
    )
  )
)
(assert
  (forall ( (A Int) (B Heap) (C Int) (D Int) (E Int) (F Int) (G Heap) (v_7 Int) ) 
    (=>
      (and
        (inv_main55 G F E)
        (let ((a!1 (ite (and (not (<= E 0)) (>= (HeapSize G) E))
                (select (HeapContents G) E)
                defObj)))
  (and (= C 0)
       (= C (next (getTSLL a!1)))
       (not (= D 0))
       (= D F)
       (= A E)
       ((_ is O_TSLL) a!1)
       (= B G)
       (= v_7 D)))
      )
      (inv_main67 B D v_7)
    )
  )
)
(assert
  (forall ( (A Heap) (B Int) (C Int) (D Int) (E Int) (F Heap) ) 
    (=>
      (and
        (inv_main45 F E D C B)
        (let ((a!1 (ite (and (not (<= D 0)) (>= (HeapSize F) D))
                (select (HeapContents F) D)
                defObj)))
(let ((a!2 (O_TSLL (TSLL (next (getTSLL a!1)) B (data (getTSLL a!1))))))
(let ((a!3 (ite (and (not (<= D 0)) (>= (HeapSize F) D))
                (HeapCtor (HeapSize F) (store (HeapContents F) D a!2))
                F)))
  (and ((_ is O_TSLL) a!1) (= A a!3)))))
      )
      (inv_main44 A E D C)
    )
  )
)
(assert
  (forall ( (A Heap) (B Int) (C Heap) ) 
    (=>
      (and
        (inv_main4 C B)
        (let ((a!1 (ite (and (not (<= B 0)) (>= (HeapSize C) B))
                (select (HeapContents C) B)
                defObj)))
(let ((a!2 (O_TSLL (TSLL (next (getTSLL a!1)) 0 (data (getTSLL a!1))))))
(let ((a!3 (ite (and (not (<= B 0)) (>= (HeapSize C) B))
                (HeapCtor (HeapSize C) (store (HeapContents C) B a!2))
                C)))
  (and ((_ is O_TSLL) a!1) (= A a!3)))))
      )
      (inv_main5 A B)
    )
  )
)
(assert
  (forall ( (A Heap) (B Int) (C Int) (D Int) (E Heap) ) 
    (=>
      (and
        (inv_main38 E D C B)
        (let ((a!1 (ite (and (not (<= C 0)) (>= (HeapSize E) C))
                (select (HeapContents E) C)
                defObj)))
(let ((a!2 (O_TSLL (TSLL (next (getTSLL a!1)) (prev (getTSLL a!1)) 1))))
(let ((a!3 (ite (and (not (<= C 0)) (>= (HeapSize E) C))
                (HeapCtor (HeapSize E) (store (HeapContents E) C a!2))
                E)))
  (and ((_ is O_TSLL) a!1) (= A a!3)))))
      )
      (inv_main40 A D C B)
    )
  )
)
(assert
  (forall ( (A Int) (B Int) (C Int) (D Int) (E Int) (F TSLL) (G Heap) (H Int) (I Int) (J Heap) ) 
    (=>
      (and
        (inv_main7 J I H)
        (let ((a!1 (HeapCtor (+ 1 (HeapSize J))
                     (store (HeapContents J) (+ 1 (HeapSize J)) (O_TSLL F)))))
  (and (not (= B 0)) (= C (+ 1 (HeapSize J))) (= A 0) (= E I) (= D H) (= G a!1)))
      )
      (inv_main21 G E C)
    )
  )
)
(assert
  (forall ( (A Int) (B Int) (C Heap) (D Int) (E Int) (F Int) (G Heap) ) 
    (=>
      (and
        (inv_main54 G F E)
        (let ((a!1 (ite (and (not (<= E 0)) (>= (HeapSize G) E))
                (select (HeapContents G) E)
                defObj)))
  (and (not (= D 1))
       (= D (data (getTSLL a!1)))
       (= B F)
       (= A E)
       ((_ is O_TSLL) a!1)
       (= C G)))
      )
      (inv_main60 C B A)
    )
  )
)
(assert
  (forall ( (A Int) (B Int) (C Heap) (D Int) (E Int) (F Int) (G Heap) ) 
    (=>
      (and
        (inv_main26 G F E)
        (let ((a!1 (ite (and (not (<= E 0)) (>= (HeapSize G) E))
                (select (HeapContents G) E)
                defObj)))
  (and (= D 0)
       (= D (next (getTSLL a!1)))
       (= B F)
       (= A E)
       ((_ is O_TSLL) a!1)
       (= C G)))
      )
      (inv_main27 C B A)
    )
  )
)
(assert
  (forall ( (A Int) (B Int) (C Heap) (D Int) (E Int) (F Int) (G Int) (H Heap) ) 
    (=>
      (and
        (inv_main26 H G F)
        (let ((a!1 (ite (and (not (<= F 0)) (>= (HeapSize H) F))
                (select (HeapContents H) F)
                defObj)))
  (and (not (= D 0))
       (= D (next (getTSLL a!1)))
       (= A F)
       (not (= E 0))
       (= B G)
       ((_ is O_TSLL) a!1)
       (= C H)))
      )
      (inv_main27 C B A)
    )
  )
)
(assert
  (forall ( (A Int) (B Int) (C Heap) (D Int) (E Int) (F Int) (G Heap) ) 
    (=>
      (and
        (inv_main54 G F E)
        (let ((a!1 (ite (and (not (<= E 0)) (>= (HeapSize G) E))
                (select (HeapContents G) E)
                defObj)))
  (and (= D 1)
       (= D (data (getTSLL a!1)))
       (= B F)
       (= A E)
       ((_ is O_TSLL) a!1)
       (= C G)))
      )
      (inv_main55 C B A)
    )
  )
)
(assert
  (forall ( (A Int) (B Int) (C Heap) (D Int) (E Int) (F Int) (G Heap) ) 
    (=>
      (and
        (inv_main46 G F E)
        (let ((a!1 (ite (and (not (<= E 0)) (>= (HeapSize G) E))
                (select (HeapContents G) E)
                defObj)))
  (and (= D 1)
       (= D (data (getTSLL a!1)))
       (= B F)
       (= A E)
       ((_ is O_TSLL) a!1)
       (= C G)))
      )
      (inv_main47 C B A)
    )
  )
)
(assert
  (forall ( (A Int) (B Heap) (C TSLL) (D Int) (E Int) (F Int) (G Heap) ) 
    (=>
      (and
        (inv_main7 G F E)
        (let ((a!1 (HeapCtor (+ 1 (HeapSize G))
                     (store (HeapContents G) (+ 1 (HeapSize G)) (O_TSLL C)))))
  (and (not (= D 0)) (= A (+ 1 (HeapSize G))) (= B a!1)))
      )
      (inv_main12 B F E A)
    )
  )
)
(assert
  (forall ( (A Int) (B Int) (C Heap) (D Int) (E Int) (F Int) (G Int) (H Heap) ) 
    (=>
      (and
        (inv_main40 H G F E)
        (let ((a!1 (ite (and (not (<= F 0)) (>= (HeapSize H) F))
                (select (HeapContents H) F)
                defObj)))
(let ((a!2 (O_TSLL (TSLL E (prev (getTSLL a!1)) (data (getTSLL a!1))))))
(let ((a!3 (ite (and (not (<= F 0)) (>= (HeapSize H) F))
                (HeapCtor (HeapSize H) (store (HeapContents H) F a!2))
                H)))
  (and (not (= D 0)) (= D E) (= A F) (= B G) ((_ is O_TSLL) a!1) (= C a!3)))))
      )
      (inv_main42 C B A D)
    )
  )
)
(assert
  (forall ( (A Int) (B Heap) (C TSLL) (D Int) (E Int) (F Int) (G Heap) (H Int) (I Int) (J Heap) ) 
    (=>
      (and
        (inv_main27 J I H)
        (let ((a!1 (HeapCtor (+ 1 (HeapSize G))
                     (store (HeapContents G) (+ 1 (HeapSize G)) (O_TSLL C))))
      (a!2 (ite (and (not (<= H 0)) (>= (HeapSize J) H))
                (select (HeapContents J) H)
                defObj)))
  (and (= B a!1)
       (= F I)
       (= A (+ 1 (HeapSize G)))
       (= E H)
       (= D (next (getTSLL a!2)))
       ((_ is O_TSLL) a!2)
       (= G J)))
      )
      (inv_main37 B F E D A)
    )
  )
)
(assert
  (forall ( (A Heap) (B Int) (C Int) (D Heap) ) 
    (=>
      (and
        (inv_main23 D C B)
        (let ((a!1 (ite (and (not (<= B 0)) (>= (HeapSize D) B))
                (select (HeapContents D) B)
                defObj)))
(let ((a!2 (O_TSLL (TSLL C (prev (getTSLL a!1)) (data (getTSLL a!1))))))
(let ((a!3 (ite (and (not (<= B 0)) (>= (HeapSize D) B))
                (HeapCtor (HeapSize D) (store (HeapContents D) B a!2))
                D)))
  (and ((_ is O_TSLL) a!1) (= A a!3)))))
      )
      (inv_main24 A C B)
    )
  )
)
(assert
  (forall ( (A Heap) (B Int) (C Int) (D Heap) ) 
    (=>
      (and
        (inv_main14 D C B)
        (let ((a!1 (ite (and (not (<= B 0)) (>= (HeapSize D) B))
                (select (HeapContents D) B)
                defObj)))
(let ((a!2 (O_TSLL (TSLL (next (getTSLL a!1)) (prev (getTSLL a!1)) 0))))
(let ((a!3 (ite (and (not (<= B 0)) (>= (HeapSize D) B))
                (HeapCtor (HeapSize D) (store (HeapContents D) B a!2))
                D)))
  (and ((_ is O_TSLL) a!1) (= A a!3)))))
      )
      (inv_main16 A C B)
    )
  )
)
(assert
  (forall ( (A Heap) (B Int) (C Heap) ) 
    (=>
      (and
        (inv_main3 C B)
        (let ((a!1 (ite (and (not (<= B 0)) (>= (HeapSize C) B))
                (select (HeapContents C) B)
                defObj)))
(let ((a!2 (O_TSLL (TSLL 0 (prev (getTSLL a!1)) (data (getTSLL a!1))))))
(let ((a!3 (ite (and (not (<= B 0)) (>= (HeapSize C) B))
                (HeapCtor (HeapSize C) (store (HeapContents C) B a!2))
                C)))
  (and ((_ is O_TSLL) a!1) (= A a!3)))))
      )
      (inv_main4 A B)
    )
  )
)
(assert
  (forall ( (A Int) (B Int) (C Heap) (D Int) (E Int) (F Int) (G Heap) ) 
    (=>
      (and
        (inv_main46 G F E)
        (let ((a!1 (ite (and (not (<= E 0)) (>= (HeapSize G) E))
                (select (HeapContents G) E)
                defObj)))
  (and (not (= D 1))
       (= D (data (getTSLL a!1)))
       (= B F)
       (= A E)
       ((_ is O_TSLL) a!1)
       (= C G)))
      )
      (inv_main48 C B A)
    )
  )
)
(assert
  (forall ( (A Int) (B Int) (C Int) (D Int) (E Heap) (F Int) (G Int) (H Int) (I Heap) ) 
    (=>
      (and
        (inv_main36 I H G F)
        (let ((a!1 (ite (and (not (<= G 0)) (>= (HeapSize I) G))
                (select (HeapContents I) G)
                defObj)))
  (and (= A (next (getTSLL a!1)))
       (= B F)
       (= D H)
       (= C G)
       ((_ is O_TSLL) a!1)
       (= E I)))
      )
      (inv_main38 E D A B)
    )
  )
)
(assert
  (forall ( (A Int) (B Int) (C Int) (D Int) (E Heap) ) 
    (=>
      (and
        (inv_main42 E D C B)
        (let ((a!1 (ite (and (not (<= B 0)) (>= (HeapSize E) B))
                (select (HeapContents E) B)
                defObj)))
  (and ((_ is O_TSLL) a!1) (= A (prev (getTSLL a!1)))))
      )
      (inv_main45 E D C B A)
    )
  )
)
(assert
  (forall ( (A Heap) (B Int) (C Int) (D Int) (E Heap) ) 
    (=>
      (and
        (inv_main12 E D C B)
        (let ((a!1 (ite (and (not (<= C 0)) (>= (HeapSize E) C))
                (select (HeapContents E) C)
                defObj)))
(let ((a!2 (O_TSLL (TSLL B (prev (getTSLL a!1)) (data (getTSLL a!1))))))
(let ((a!3 (ite (and (not (<= C 0)) (>= (HeapSize E) C))
                (HeapCtor (HeapSize E) (store (HeapContents E) C a!2))
                E)))
  (and ((_ is O_TSLL) a!1) (= A a!3)))))
      )
      (inv_main11 A D C)
    )
  )
)
(assert
  (forall ( (A Int) (B Int) (C Int) (D Heap) (E Int) (F Int) (G Heap) ) 
    (=>
      (and
        (inv_main48 G F E)
        (let ((a!1 (ite (and (not (<= E 0)) (>= (HeapSize G) E))
                (select (HeapContents G) E)
                defObj)))
  (and (= C F) (= B E) (= A (next (getTSLL a!1))) ((_ is O_TSLL) a!1) (= D G)))
      )
      (inv_main46 D C A)
    )
  )
)
(assert
  (forall ( (A Int) (B Int) (C Heap) (D Int) (E Int) (F Int) (G Heap) (v_7 Int) ) 
    (=>
      (and
        (inv_main44 G F E D)
        (let ((a!1 (ite (and (not (<= D 0)) (>= (HeapSize G) D))
                (select (HeapContents G) D)
                defObj)))
(let ((a!2 (O_TSLL (TSLL (next (getTSLL a!1)) E (data (getTSLL a!1))))))
(let ((a!3 (ite (and (not (<= D 0)) (>= (HeapSize G) D))
                (HeapCtor (HeapSize G) (store (HeapContents G) D a!2))
                G)))
  (and (= B F) (= A E) ((_ is O_TSLL) a!1) (= C a!3) (= v_7 B)))))
      )
      (inv_main46 C B v_7)
    )
  )
)
(assert
  (forall ( (A Int) (B Int) (C Heap) (D Int) (E Int) (F Int) (G Int) (H Heap) (v_8 Int) ) 
    (=>
      (and
        (inv_main40 H G F E)
        (let ((a!1 (ite (and (not (<= F 0)) (>= (HeapSize H) F))
                (select (HeapContents H) F)
                defObj)))
(let ((a!2 (O_TSLL (TSLL E (prev (getTSLL a!1)) (data (getTSLL a!1))))))
(let ((a!3 (ite (and (not (<= F 0)) (>= (HeapSize H) F))
                (HeapCtor (HeapSize H) (store (HeapContents H) F a!2))
                H)))
  (and (= D 0) (= D E) (= A F) (= B G) ((_ is O_TSLL) a!1) (= C a!3) (= v_8 B)))))
      )
      (inv_main46 C B v_8)
    )
  )
)
(assert
  (forall ( (A Int) (B Int) (C Heap) (D Int) (E Int) (F Heap) (v_6 Int) ) 
    (=>
      (and
        (inv_main24 F E D)
        (let ((a!1 (ite (and (not (<= D 0)) (>= (HeapSize F) D))
                (select (HeapContents F) D)
                defObj)))
(let ((a!2 (O_TSLL (TSLL (next (getTSLL a!1)) 0 (data (getTSLL a!1))))))
(let ((a!3 (ite (and (not (<= D 0)) (>= (HeapSize F) D))
                (HeapCtor (HeapSize F) (store (HeapContents F) D a!2))
                F)))
  (and (= B E) (= A D) ((_ is O_TSLL) a!1) (= C a!3) (= v_6 A)))))
      )
      (inv_main46 C A v_6)
    )
  )
)
(assert
  (forall ( (A Heap) (B Int) (C Int) (D Heap) ) 
    (=>
      (and
        (inv_main11 D C B)
        (let ((a!1 (ite (and (not (<= B 0)) (>= (HeapSize D) B))
                (select (HeapContents D) B)
                defObj)))
(let ((a!2 (not (<= (next (getTSLL a!1)) 0))))
(let ((a!3 (and a!2 (>= (HeapSize D) (next (getTSLL a!1))))))
(let ((a!4 (ite a!3 (select (HeapContents D) (next (getTSLL a!1))) defObj)))
(let ((a!5 (O_TSLL (TSLL (next (getTSLL a!4)) B (data (getTSLL a!4))))))
(let ((a!6 (HeapCtor (HeapSize D)
                     (store (HeapContents D) (next (getTSLL a!1)) a!5))))
  (and ((_ is O_TSLL) a!4) ((_ is O_TSLL) a!1) (= A (ite a!3 a!6 D)))))))))
      )
      (inv_main13 A C B)
    )
  )
)
(assert
  (forall ( (A Int) (B Heap) (C TSLL) (D Heap) ) 
    (=>
      (and
        (inv_main2 D)
        (let ((a!1 (HeapCtor (+ 1 (HeapSize D))
                     (store (HeapContents D) (+ 1 (HeapSize D)) (O_TSLL C)))))
  (and (= A (+ 1 (HeapSize D))) (= B a!1)))
      )
      (inv_main3 B A)
    )
  )
)
(assert
  (forall ( (A Heap) (B Int) (C Int) (D Heap) ) 
    (=>
      (and
        (inv_main16 D C B)
        (let ((a!1 (ite (and (not (<= B 0)) (>= (HeapSize D) B))
                (select (HeapContents D) B)
                defObj)))
(let ((a!2 (O_TSLL (TSLL 0 (prev (getTSLL a!1)) (data (getTSLL a!1))))))
(let ((a!3 (ite (and (not (<= B 0)) (>= (HeapSize D) B))
                (HeapCtor (HeapSize D) (store (HeapContents D) B a!2))
                D)))
  (and ((_ is O_TSLL) a!1) (= A a!3)))))
      )
      (inv_main7 A C B)
    )
  )
)
(assert
  (forall ( (A Int) (B Heap) (C Int) (D Heap) (v_4 Int) ) 
    (=>
      (and
        (inv_main5 D C)
        (let ((a!1 (ite (and (not (<= C 0)) (>= (HeapSize D) C))
                (select (HeapContents D) C)
                defObj)))
(let ((a!2 (O_TSLL (TSLL (next (getTSLL a!1)) (prev (getTSLL a!1)) 0))))
(let ((a!3 (ite (and (not (<= C 0)) (>= (HeapSize D) C))
                (HeapCtor (HeapSize D) (store (HeapContents D) C a!2))
                D)))
  (and (= A C) ((_ is O_TSLL) a!1) (= B a!3) (= v_4 A)))))
      )
      (inv_main7 B A v_4)
    )
  )
)
(assert
  (forall ( (A Int) (B Int) (C Int) (D Heap) (E Int) (F Int) (G Heap) ) 
    (=>
      (and
        (inv_main30 G F E)
        (let ((a!1 (ite (and (not (<= E 0)) (>= (HeapSize G) E))
                (select (HeapContents G) E)
                defObj)))
  (and (= C F) (= B E) (= A (next (getTSLL a!1))) ((_ is O_TSLL) a!1) (= D G)))
      )
      (inv_main26 D C A)
    )
  )
)
(assert
  (forall ( (A Int) (B Int) (C Int) (D Int) (E Heap) (v_5 Int) ) 
    (=>
      (and
        (inv_main7 E D C)
        (and (= B 0) (= A 0) (= v_5 D))
      )
      (inv_main26 E D v_5)
    )
  )
)
(assert
  (forall ( (A Int) (B Int) (C Int) (D Heap) (E Int) (F Int) (G Heap) ) 
    (=>
      (and
        (inv_main13 G F E)
        (let ((a!1 (ite (and (not (<= E 0)) (>= (HeapSize G) E))
                (select (HeapContents G) E)
                defObj)))
  (and (= C F) (= B E) (= A (next (getTSLL a!1))) ((_ is O_TSLL) a!1) (= D G)))
      )
      (inv_main14 D C A)
    )
  )
)
(assert
  (forall ( (A Heap) (B Int) (C Int) (D Int) (E Int) (F Heap) ) 
    (=>
      (and
        (inv_main37 F E D C B)
        (let ((a!1 (ite (and (not (<= D 0)) (>= (HeapSize F) D))
                (select (HeapContents F) D)
                defObj)))
(let ((a!2 (O_TSLL (TSLL B (prev (getTSLL a!1)) (data (getTSLL a!1))))))
(let ((a!3 (ite (and (not (<= D 0)) (>= (HeapSize F) D))
                (HeapCtor (HeapSize F) (store (HeapContents F) D a!2))
                F)))
  (and ((_ is O_TSLL) a!1) (= A a!3)))))
      )
      (inv_main36 A E D C)
    )
  )
)
(assert
  (forall ( (A Heap) (B Int) (C Int) (D Heap) ) 
    (=>
      (and
        (inv_main21 D C B)
        (let ((a!1 (ite (and (not (<= B 0)) (>= (HeapSize D) B))
                (select (HeapContents D) B)
                defObj)))
(let ((a!2 (O_TSLL (TSLL (next (getTSLL a!1)) (prev (getTSLL a!1)) 1))))
(let ((a!3 (ite (and (not (<= B 0)) (>= (HeapSize D) B))
                (HeapCtor (HeapSize D) (store (HeapContents D) B a!2))
                D)))
  (and ((_ is O_TSLL) a!1) (= A a!3)))))
      )
      (inv_main23 A C B)
    )
  )
)
(assert
  (forall ( (A Int) (B Int) (C Heap) (D Int) (E Int) (F Int) (G Int) (H Heap) ) 
    (=>
      (and
        (inv_main26 H G F)
        (let ((a!1 (ite (and (not (<= F 0)) (>= (HeapSize H) F))
                (select (HeapContents H) F)
                defObj)))
  (and (not (= D 0))
       (= D (next (getTSLL a!1)))
       (= A F)
       (= E 0)
       (= B G)
       ((_ is O_TSLL) a!1)
       (= C H)))
      )
      (inv_main30 C B A)
    )
  )
)
(assert
  (forall ( (A Int) (B Heap) ) 
    (=>
      (and
        (inv_main3 B A)
        (let ((a!1 (ite (and (not (<= A 0)) (>= (HeapSize B) A))
                (select (HeapContents B) A)
                defObj)))
  (not ((_ is O_TSLL) a!1)))
      )
      CHC_COMP_FALSE
    )
  )
)
(assert
  (forall ( (A Int) (B Heap) ) 
    (=>
      (and
        (inv_main4 B A)
        (let ((a!1 (ite (and (not (<= A 0)) (>= (HeapSize B) A))
                (select (HeapContents B) A)
                defObj)))
  (not ((_ is O_TSLL) a!1)))
      )
      CHC_COMP_FALSE
    )
  )
)
(assert
  (forall ( (A Int) (B Heap) ) 
    (=>
      (and
        (inv_main5 B A)
        (let ((a!1 (ite (and (not (<= A 0)) (>= (HeapSize B) A))
                (select (HeapContents B) A)
                defObj)))
  (not ((_ is O_TSLL) a!1)))
      )
      CHC_COMP_FALSE
    )
  )
)
(assert
  (forall ( (A Int) (B Int) (C Int) (D Heap) ) 
    (=>
      (and
        (inv_main12 D C B A)
        (let ((a!1 (ite (and (not (<= B 0)) (>= (HeapSize D) B))
                (select (HeapContents D) B)
                defObj)))
  (not ((_ is O_TSLL) a!1)))
      )
      CHC_COMP_FALSE
    )
  )
)
(assert
  (forall ( (A Int) (B Int) (C Heap) ) 
    (=>
      (and
        (inv_main11 C B A)
        (let ((a!1 (ite (and (not (<= A 0)) (>= (HeapSize C) A))
                (select (HeapContents C) A)
                defObj)))
  (not ((_ is O_TSLL) a!1)))
      )
      CHC_COMP_FALSE
    )
  )
)
(assert
  (forall ( (A Int) (B Int) (C Heap) ) 
    (=>
      (and
        (inv_main11 C B A)
        (let ((a!1 (ite (and (not (<= A 0)) (>= (HeapSize C) A))
                (select (HeapContents C) A)
                defObj)))
(let ((a!2 (not (<= (next (getTSLL a!1)) 0))))
(let ((a!3 (and a!2 (>= (HeapSize C) (next (getTSLL a!1))))))
(let ((a!4 (ite a!3 (select (HeapContents C) (next (getTSLL a!1))) defObj)))
  (and ((_ is O_TSLL) a!1) (not ((_ is O_TSLL) a!4)))))))
      )
      CHC_COMP_FALSE
    )
  )
)
(assert
  (forall ( (A Int) (B Int) (C Heap) ) 
    (=>
      (and
        (inv_main13 C B A)
        (let ((a!1 (ite (and (not (<= A 0)) (>= (HeapSize C) A))
                (select (HeapContents C) A)
                defObj)))
  (not ((_ is O_TSLL) a!1)))
      )
      CHC_COMP_FALSE
    )
  )
)
(assert
  (forall ( (A Int) (B Int) (C Heap) ) 
    (=>
      (and
        (inv_main14 C B A)
        (let ((a!1 (ite (and (not (<= A 0)) (>= (HeapSize C) A))
                (select (HeapContents C) A)
                defObj)))
  (not ((_ is O_TSLL) a!1)))
      )
      CHC_COMP_FALSE
    )
  )
)
(assert
  (forall ( (A Int) (B Int) (C Heap) ) 
    (=>
      (and
        (inv_main16 C B A)
        (let ((a!1 (ite (and (not (<= A 0)) (>= (HeapSize C) A))
                (select (HeapContents C) A)
                defObj)))
  (not ((_ is O_TSLL) a!1)))
      )
      CHC_COMP_FALSE
    )
  )
)
(assert
  (forall ( (A Int) (B Int) (C Heap) ) 
    (=>
      (and
        (inv_main21 C B A)
        (let ((a!1 (ite (and (not (<= A 0)) (>= (HeapSize C) A))
                (select (HeapContents C) A)
                defObj)))
  (not ((_ is O_TSLL) a!1)))
      )
      CHC_COMP_FALSE
    )
  )
)
(assert
  (forall ( (A Int) (B Int) (C Heap) ) 
    (=>
      (and
        (inv_main23 C B A)
        (let ((a!1 (ite (and (not (<= A 0)) (>= (HeapSize C) A))
                (select (HeapContents C) A)
                defObj)))
  (not ((_ is O_TSLL) a!1)))
      )
      CHC_COMP_FALSE
    )
  )
)
(assert
  (forall ( (A Int) (B Int) (C Heap) ) 
    (=>
      (and
        (inv_main24 C B A)
        (let ((a!1 (ite (and (not (<= A 0)) (>= (HeapSize C) A))
                (select (HeapContents C) A)
                defObj)))
  (not ((_ is O_TSLL) a!1)))
      )
      CHC_COMP_FALSE
    )
  )
)
(assert
  (forall ( (A Int) (B Int) (C Heap) ) 
    (=>
      (and
        (inv_main26 C B A)
        (let ((a!1 (ite (and (not (<= A 0)) (>= (HeapSize C) A))
                (select (HeapContents C) A)
                defObj)))
  (not ((_ is O_TSLL) a!1)))
      )
      CHC_COMP_FALSE
    )
  )
)
(assert
  (forall ( (A Int) (B Int) (C Heap) ) 
    (=>
      (and
        (inv_main30 C B A)
        (let ((a!1 (ite (and (not (<= A 0)) (>= (HeapSize C) A))
                (select (HeapContents C) A)
                defObj)))
  (not ((_ is O_TSLL) a!1)))
      )
      CHC_COMP_FALSE
    )
  )
)
(assert
  (forall ( (A Int) (B Int) (C Heap) ) 
    (=>
      (and
        (inv_main27 C B A)
        (let ((a!1 (ite (and (not (<= A 0)) (>= (HeapSize C) A))
                (select (HeapContents C) A)
                defObj)))
  (not ((_ is O_TSLL) a!1)))
      )
      CHC_COMP_FALSE
    )
  )
)
(assert
  (forall ( (A Int) (B Int) (C Int) (D Int) (E Heap) ) 
    (=>
      (and
        (inv_main37 E D C B A)
        (let ((a!1 (ite (and (not (<= C 0)) (>= (HeapSize E) C))
                (select (HeapContents E) C)
                defObj)))
  (not ((_ is O_TSLL) a!1)))
      )
      CHC_COMP_FALSE
    )
  )
)
(assert
  (forall ( (A Int) (B Int) (C Int) (D Heap) ) 
    (=>
      (and
        (inv_main36 D C B A)
        (let ((a!1 (ite (and (not (<= B 0)) (>= (HeapSize D) B))
                (select (HeapContents D) B)
                defObj)))
  (not ((_ is O_TSLL) a!1)))
      )
      CHC_COMP_FALSE
    )
  )
)
(assert
  (forall ( (A Int) (B Int) (C Int) (D Heap) ) 
    (=>
      (and
        (inv_main38 D C B A)
        (let ((a!1 (ite (and (not (<= B 0)) (>= (HeapSize D) B))
                (select (HeapContents D) B)
                defObj)))
  (not ((_ is O_TSLL) a!1)))
      )
      CHC_COMP_FALSE
    )
  )
)
(assert
  (forall ( (A Int) (B Int) (C Int) (D Heap) ) 
    (=>
      (and
        (inv_main40 D C B A)
        (let ((a!1 (ite (and (not (<= B 0)) (>= (HeapSize D) B))
                (select (HeapContents D) B)
                defObj)))
  (not ((_ is O_TSLL) a!1)))
      )
      CHC_COMP_FALSE
    )
  )
)
(assert
  (forall ( (A Int) (B Int) (C Int) (D Heap) ) 
    (=>
      (and
        (inv_main42 D C B A)
        (let ((a!1 (ite (and (not (<= A 0)) (>= (HeapSize D) A))
                (select (HeapContents D) A)
                defObj)))
  (not ((_ is O_TSLL) a!1)))
      )
      CHC_COMP_FALSE
    )
  )
)
(assert
  (forall ( (A Int) (B Int) (C Int) (D Int) (E Heap) ) 
    (=>
      (and
        (inv_main45 E D C B A)
        (let ((a!1 (ite (and (not (<= C 0)) (>= (HeapSize E) C))
                (select (HeapContents E) C)
                defObj)))
  (not ((_ is O_TSLL) a!1)))
      )
      CHC_COMP_FALSE
    )
  )
)
(assert
  (forall ( (A Int) (B Int) (C Int) (D Heap) ) 
    (=>
      (and
        (inv_main44 D C B A)
        (let ((a!1 (ite (and (not (<= A 0)) (>= (HeapSize D) A))
                (select (HeapContents D) A)
                defObj)))
  (not ((_ is O_TSLL) a!1)))
      )
      CHC_COMP_FALSE
    )
  )
)
(assert
  (forall ( (A Int) (B Int) (C Heap) ) 
    (=>
      (and
        (inv_main46 C B A)
        (let ((a!1 (ite (and (not (<= A 0)) (>= (HeapSize C) A))
                (select (HeapContents C) A)
                defObj)))
  (not ((_ is O_TSLL) a!1)))
      )
      CHC_COMP_FALSE
    )
  )
)
(assert
  (forall ( (A Int) (B Int) (C Heap) ) 
    (=>
      (and
        (inv_main48 C B A)
        (let ((a!1 (ite (and (not (<= A 0)) (>= (HeapSize C) A))
                (select (HeapContents C) A)
                defObj)))
  (not ((_ is O_TSLL) a!1)))
      )
      CHC_COMP_FALSE
    )
  )
)
(assert
  (forall ( (A Int) (B Int) (C Heap) ) 
    (=>
      (and
        (inv_main47 C B A)
        (let ((a!1 (ite (and (not (<= A 0)) (>= (HeapSize C) A))
                (select (HeapContents C) A)
                defObj)))
  (not ((_ is O_TSLL) a!1)))
      )
      CHC_COMP_FALSE
    )
  )
)
(assert
  (forall ( (A Int) (B Int) (C Heap) ) 
    (=>
      (and
        (inv_main54 C B A)
        (let ((a!1 (ite (and (not (<= A 0)) (>= (HeapSize C) A))
                (select (HeapContents C) A)
                defObj)))
  (not ((_ is O_TSLL) a!1)))
      )
      CHC_COMP_FALSE
    )
  )
)
(assert
  (forall ( (A Int) (B Int) (C Heap) ) 
    (=>
      (and
        (inv_main60 C B A)
        true
      )
      CHC_COMP_FALSE
    )
  )
)
(assert
  (forall ( (A Int) (B Int) (C Heap) ) 
    (=>
      (and
        (inv_main55 C B A)
        (let ((a!1 (ite (and (not (<= A 0)) (>= (HeapSize C) A))
                (select (HeapContents C) A)
                defObj)))
  (not ((_ is O_TSLL) a!1)))
      )
      CHC_COMP_FALSE
    )
  )
)
(assert
  (forall ( (A Int) (B Int) (C Heap) ) 
    (=>
      (and
        (inv_main67 C B A)
        (let ((a!1 (ite (and (not (<= A 0)) (>= (HeapSize C) A))
                (select (HeapContents C) A)
                defObj)))
  (not ((_ is O_TSLL) a!1)))
      )
      CHC_COMP_FALSE
    )
  )
)
(assert
  (forall ( (CHC_COMP_UNUSED Bool) ) 
    (=>
      (and
        CHC_COMP_FALSE
      )
      false
    )
  )
)

(check-sat)
(exit)
